NAME: tsp30-37
TYPE: TSP
DIMENSION: 30
EDGE_WEIGHT_TYPE: EUC_2D
NODE_COORD_SECTION
0 26 94
1 60 28
2 61 93
3 74 94
4 47 81
5 78 20
6 18 28
7 28 19
8 82 81
9 79 12
10 77 67
11 60 41
12 15 33
13 30 19
14 96 99
15 16 36
16 37 69
17 19 90
18 41 47
19 46 14
20 81 34
21 13 62
22 34 82
23 95 9
24 7 61
25 53 54
26 62 56
27 13 61
28 89 75
29 65 25
EOF